This is Ipopt version 3.14.14, running with linear solver MUMPS 5.6.2.

Number of nonzeros in equality constraint Jacobian...:   149894
Number of nonzeros in inequality constraint Jacobian.:        0
Number of nonzeros in Lagrangian Hessian.............:   117941

Total number of variables............................:    43978
                     variables with only lower bounds:        0
                variables with lower and upper bounds:        0
                     variables with only upper bounds:        0
Total number of equality constraints.................:    39978
Total number of inequality constraints...............:        0
        inequality constraints with only lower bounds:        0
   inequality constraints with lower and upper bounds:        0
        inequality constraints with only upper bounds:        0

iter    objective    inf_pr   inf_du lg(mu)  ||d||  lg(rg) alpha_du alpha_pr  ls
   0  2.3000001e+02 9.80e+00 1.20e-01  -1.0 0.00e+00    -  0.00e+00 0.00e+00   0
   1  7.1867327e+02 2.77e-13 6.80e+02  -1.0 1.02e+01    -  1.00e+00 1.00e+00h  1
   2  7.1850583e+02 5.55e-09 1.10e-01  -1.0 1.10e-03   2.0 1.00e+00 1.00e+00f  1
   3  5.6870638e+02 5.21e-02 1.57e-02  -2.5 2.00e+00    -  1.00e+00 1.00e+00f  1
   4  5.6876251e+02 3.66e-04 3.68e-05  -2.5 1.66e-01    -  1.00e+00 1.00e+00h  1
   5  5.6876254e+02 1.83e-09 1.63e-10  -5.7 3.60e-04    -  1.00e+00 1.00e+00h  1

Number of Iterations....: 5

                                   (scaled)                 (unscaled)
Objective...............:   5.6876253708597574e+02    5.6876253708597574e+02
Dual infeasibility......:   1.6259808603702464e-10    1.6259808603702464e-10
Constraint violation....:   1.8323919812046618e-09    1.8323919812046618e-09
Variable bound violation:   0.0000000000000000e+00    0.0000000000000000e+00
Complementarity.........:   0.0000000000000000e+00    0.0000000000000000e+00
Overall NLP error.......:   1.8323919812046618e-09    1.8323919812046618e-09


Number of objective function evaluations             = 6
Number of objective gradient evaluations             = 6
Number of equality constraint evaluations            = 6
Number of inequality constraint evaluations          = 0
Number of equality constraint Jacobian evaluations   = 6
Number of inequality constraint Jacobian evaluations = 0
Number of Lagrangian Hessian evaluations             = 5
Total seconds in IPOPT (w/o function evaluations)    =      1.435
Total seconds in NLP function evaluations            =      0.546


Timing Statistics:

OverallAlgorithm....................:      9.322 (sys:      8.948 wall:      1.981)
 PrintProblemStatistics.............:      0.005 (sys:      0.002 wall:      0.001)
 InitializeIterates.................:      0.172 (sys:      0.013 wall:      0.184)
 UpdateHessian......................:      2.224 (sys:      2.317 wall:      0.292)
 OutputIteration....................:      0.026 (sys:      0.015 wall:      0.003)
 UpdateBarrierParameter.............:      0.002 (sys:      0.003 wall:      0.000)
 ComputeSearchDirection.............:      4.847 (sys:      4.520 wall:      1.235)
 ComputeAcceptableTrialPoint........:      1.524 (sys:      1.507 wall:      0.195)
 AcceptTrialPoint...................:      0.003 (sys:      0.001 wall:      0.000)
 CheckConvergence...................:      0.516 (sys:      0.569 wall:      0.070)
PDSystemSolverTotal.................:      4.839 (sys:      4.514 wall:      1.234)
 PDSystemSolverSolveOnce............:      4.679 (sys:      4.334 wall:      1.208)
 ComputeResiduals...................:      0.117 (sys:      0.158 wall:      0.022)
 StdAugSystemSolverMultiSolve.......:      4.813 (sys:      4.337 wall:      1.364)
 LinearSystemScaling................:      0.000 (sys:      0.000 wall:      0.000)
 LinearSystemSymbolicFactorization..:      0.065 (sys:      0.000 wall:      0.065)
 LinearSystemFactorization..........:      0.000 (sys:      0.000 wall:      0.000)
 LinearSystemBackSolve..............:      1.561 (sys:      1.682 wall:      0.295)
 LinearSystemStructureConverter.....:      0.000 (sys:      0.000 wall:      0.000)
  LinearSystemStructureConverterInit:      0.000 (sys:      0.000 wall:      0.000)
QualityFunctionSearch...............:      0.000 (sys:      0.000 wall:      0.000)
TryCorrector........................:      0.000 (sys:      0.000 wall:      0.000)
Task1...............................:      0.000 (sys:      0.000 wall:      0.000)
Task2...............................:      0.000 (sys:      0.000 wall:      0.000)
Task3...............................:      0.000 (sys:      0.000 wall:      0.000)
Task4...............................:      0.000 (sys:      0.000 wall:      0.000)
Task5...............................:      0.000 (sys:      0.000 wall:      0.000)
Task6...............................:      0.000 (sys:      0.000 wall:      0.000)
Function Evaluations................:      4.136 (sys:      4.268 wall:      0.546)
 Objective function.................:      0.025 (sys:      0.015 wall:      0.003)
 Objective function gradient........:      0.016 (sys:      0.022 wall:      0.003)
 Equality constraints...............:      1.471 (sys:      1.471 wall:      0.190)
 Inequality constraints.............:      0.000 (sys:      0.000 wall:      0.000)
 Equality constraint Jacobian.......:      0.410 (sys:      0.449 wall:      0.060)
 Inequality constraint Jacobian.....:      0.000 (sys:      0.000 wall:      0.000)
 Lagrangian Hessian.................:      2.214 (sys:      2.312 wall:      0.291)

EXIT: Optimal Solution Found.
